; Portuguese Bank dataset () 
; Flat column-slice encoding
; Column: last_contact duration

(set-logic ALL)

(declare-const O (Array Int Int))
(define-fun m () Int 200)

(assert (= (select O 0) 261))
(assert (= (select O 1) 151))
(assert (= (select O 2) 76))
(assert (= (select O 3) 92))
(assert (= (select O 4) 198))
(assert (= (select O 5) 139))
(assert (= (select O 6) 217))
(assert (= (select O 7) 380))
(assert (= (select O 8) 50))
(assert (= (select O 9) 55))
(assert (= (select O 10) 222))
(assert (= (select O 11) 137))
(assert (= (select O 12) 517))
(assert (= (select O 13) 71))
(assert (= (select O 14) 174))
(assert (= (select O 15) 353))
(assert (= (select O 16) 98))
(assert (= (select O 17) 38))
(assert (= (select O 18) 219))
(assert (= (select O 19) 54))
(assert (= (select O 20) 262))
(assert (= (select O 21) 164))
(assert (= (select O 22) 160))
(assert (= (select O 23) 342))
(assert (= (select O 24) 181))
(assert (= (select O 25) 172))
(assert (= (select O 26) 296))
(assert (= (select O 27) 127))
(assert (= (select O 28) 255))
(assert (= (select O 29) 348))
(assert (= (select O 30) 225))
(assert (= (select O 31) 230))
(assert (= (select O 32) 208))
(assert (= (select O 33) 226))
(assert (= (select O 34) 336))
(assert (= (select O 35) 242))
(assert (= (select O 36) 365))
(assert (= (select O 37) 1666))
(assert (= (select O 38) 577))
(assert (= (select O 39) 137))
(assert (= (select O 40) 160))
(assert (= (select O 41) 180))
(assert (= (select O 42) 22))
(assert (= (select O 43) 1492))
(assert (= (select O 44) 616))
(assert (= (select O 45) 242))
(assert (= (select O 46) 355))
(assert (= (select O 47) 225))
(assert (= (select O 48) 160))
(assert (= (select O 49) 363))
(assert (= (select O 50) 266))
(assert (= (select O 51) 253))
(assert (= (select O 52) 179))
(assert (= (select O 53) 787))
(assert (= (select O 54) 145))
(assert (= (select O 55) 174))
(assert (= (select O 56) 104))
(assert (= (select O 57) 13))
(assert (= (select O 58) 185))
(assert (= (select O 59) 1778))
(assert (= (select O 60) 138))
(assert (= (select O 61) 812))
(assert (= (select O 62) 164))
(assert (= (select O 63) 391))
(assert (= (select O 64) 357))
(assert (= (select O 65) 91))
(assert (= (select O 66) 528))
(assert (= (select O 67) 273))
(assert (= (select O 68) 158))
(assert (= (select O 69) 177))
(assert (= (select O 70) 258))
(assert (= (select O 71) 172))
(assert (= (select O 72) 154))
(assert (= (select O 73) 291))
(assert (= (select O 74) 181))
(assert (= (select O 75) 176))
(assert (= (select O 76) 211))
(assert (= (select O 77) 349))
(assert (= (select O 78) 272))
(assert (= (select O 79) 208))
(assert (= (select O 80) 193))
(assert (= (select O 81) 212))
(assert (= (select O 82) 20))
(assert (= (select O 83) 1042))
(assert (= (select O 84) 246))
(assert (= (select O 85) 529))
(assert (= (select O 86) 1467))
(assert (= (select O 87) 1389))
(assert (= (select O 88) 188))
(assert (= (select O 89) 180))
(assert (= (select O 90) 48))
(assert (= (select O 91) 213))
(assert (= (select O 92) 583))
(assert (= (select O 93) 221))
(assert (= (select O 94) 173))
(assert (= (select O 95) 426))
(assert (= (select O 96) 287))
(assert (= (select O 97) 101))
(assert (= (select O 98) 203))
(assert (= (select O 99) 197))
(assert (= (select O 100) 257))
(assert (= (select O 101) 124))
(assert (= (select O 102) 229))
(assert (= (select O 103) 55))
(assert (= (select O 104) 400))
(assert (= (select O 105) 197))
(assert (= (select O 106) 190))
(assert (= (select O 107) 21))
(assert (= (select O 108) 514))
(assert (= (select O 109) 849))
(assert (= (select O 110) 194))
(assert (= (select O 111) 144))
(assert (= (select O 112) 212))
(assert (= (select O 113) 286))
(assert (= (select O 114) 107))
(assert (= (select O 115) 247))
(assert (= (select O 116) 518))
(assert (= (select O 117) 364))
(assert (= (select O 118) 178))
(assert (= (select O 119) 98))
(assert (= (select O 120) 439))
(assert (= (select O 121) 79))
(assert (= (select O 122) 120))
(assert (= (select O 123) 127))
(assert (= (select O 124) 175))
(assert (= (select O 125) 262))
(assert (= (select O 126) 61))
(assert (= (select O 127) 78))
(assert (= (select O 128) 143))
(assert (= (select O 129) 579))
(assert (= (select O 130) 677))
(assert (= (select O 131) 345))
(assert (= (select O 132) 185))
(assert (= (select O 133) 100))
(assert (= (select O 134) 125))
(assert (= (select O 135) 193))
(assert (= (select O 136) 136))
(assert (= (select O 137) 73))
(assert (= (select O 138) 528))
(assert (= (select O 139) 541))
(assert (= (select O 140) 163))
(assert (= (select O 141) 301))
(assert (= (select O 142) 46))
(assert (= (select O 143) 204))
(assert (= (select O 144) 98))
(assert (= (select O 145) 71))
(assert (= (select O 146) 157))
(assert (= (select O 147) 243))
(assert (= (select O 148) 186))
(assert (= (select O 149) 579))
(assert (= (select O 150) 163))
(assert (= (select O 151) 610))
(assert (= (select O 152) 2033))
(assert (= (select O 153) 85))
(assert (= (select O 154) 114))
(assert (= (select O 155) 114))
(assert (= (select O 156) 57))
(assert (= (select O 157) 238))
(assert (= (select O 158) 93))
(assert (= (select O 159) 128))
(assert (= (select O 160) 107))
(assert (= (select O 161) 181))
(assert (= (select O 162) 303))
(assert (= (select O 163) 558))
(assert (= (select O 164) 270))
(assert (= (select O 165) 228))
(assert (= (select O 166) 99))
(assert (= (select O 167) 240))
(assert (= (select O 168) 673))
(assert (= (select O 169) 233))
(assert (= (select O 170) 1056))
(assert (= (select O 171) 250))
(assert (= (select O 172) 252))
(assert (= (select O 173) 138))
(assert (= (select O 174) 130))
(assert (= (select O 175) 412))
(assert (= (select O 176) 179))
(assert (= (select O 177) 19))
(assert (= (select O 178) 458))
(assert (= (select O 179) 717))
(assert (= (select O 180) 313))
(assert (= (select O 181) 683))
(assert (= (select O 182) 1077))
(assert (= (select O 183) 416))
(assert (= (select O 184) 146))
(assert (= (select O 185) 167))
(assert (= (select O 186) 315))
(assert (= (select O 187) 140))
(assert (= (select O 188) 346))
(assert (= (select O 189) 562))
(assert (= (select O 190) 172))
(assert (= (select O 191) 217))
(assert (= (select O 192) 142))
(assert (= (select O 193) 67))
(assert (= (select O 194) 291))
(assert (= (select O 195) 309))
(assert (= (select O 196) 248))
(assert (= (select O 197) 98))
(assert (= (select O 198) 256))
(assert (= (select O 199) 82))

; ======================================
; Loop-like local range validity (m=200)
; Encoding: flat column slice
; Property: 0 <= duration < 5000
; ======================================

(assert
  (and
    (and (>= (select O 0) 0) (< (select O 0) 5000))
    (and (>= (select O 1) 0) (< (select O 1) 5000))
    (and (>= (select O 2) 0) (< (select O 2) 5000))
    (and (>= (select O 3) 0) (< (select O 3) 5000))
    (and (>= (select O 4) 0) (< (select O 4) 5000))
    (and (>= (select O 5) 0) (< (select O 5) 5000))
    (and (>= (select O 6) 0) (< (select O 6) 5000))
    (and (>= (select O 7) 0) (< (select O 7) 5000))
    (and (>= (select O 8) 0) (< (select O 8) 5000))
    (and (>= (select O 9) 0) (< (select O 9) 5000))
    (and (>= (select O 10) 0) (< (select O 10) 5000))
    (and (>= (select O 11) 0) (< (select O 11) 5000))
    (and (>= (select O 12) 0) (< (select O 12) 5000))
    (and (>= (select O 13) 0) (< (select O 13) 5000))
    (and (>= (select O 14) 0) (< (select O 14) 5000))
    (and (>= (select O 15) 0) (< (select O 15) 5000))
    (and (>= (select O 16) 0) (< (select O 16) 5000))
    (and (>= (select O 17) 0) (< (select O 17) 5000))
    (and (>= (select O 18) 0) (< (select O 18) 5000))
    (and (>= (select O 19) 0) (< (select O 19) 5000))
    (and (>= (select O 20) 0) (< (select O 20) 5000))
    (and (>= (select O 21) 0) (< (select O 21) 5000))
    (and (>= (select O 22) 0) (< (select O 22) 5000))
    (and (>= (select O 23) 0) (< (select O 23) 5000))
    (and (>= (select O 24) 0) (< (select O 24) 5000))
    (and (>= (select O 25) 0) (< (select O 25) 5000))
    (and (>= (select O 26) 0) (< (select O 26) 5000))
    (and (>= (select O 27) 0) (< (select O 27) 5000))
    (and (>= (select O 28) 0) (< (select O 28) 5000))
    (and (>= (select O 29) 0) (< (select O 29) 5000))
    (and (>= (select O 30) 0) (< (select O 30) 5000))
    (and (>= (select O 31) 0) (< (select O 31) 5000))
    (and (>= (select O 32) 0) (< (select O 32) 5000))
    (and (>= (select O 33) 0) (< (select O 33) 5000))
    (and (>= (select O 34) 0) (< (select O 34) 5000))
    (and (>= (select O 35) 0) (< (select O 35) 5000))
    (and (>= (select O 36) 0) (< (select O 36) 5000))
    (and (>= (select O 37) 0) (< (select O 37) 5000))
    (and (>= (select O 38) 0) (< (select O 38) 5000))
    (and (>= (select O 39) 0) (< (select O 39) 5000))
    (and (>= (select O 40) 0) (< (select O 40) 5000))
    (and (>= (select O 41) 0) (< (select O 41) 5000))
    (and (>= (select O 42) 0) (< (select O 42) 5000))
    (and (>= (select O 43) 0) (< (select O 43) 5000))
    (and (>= (select O 44) 0) (< (select O 44) 5000))
    (and (>= (select O 45) 0) (< (select O 45) 5000))
    (and (>= (select O 46) 0) (< (select O 46) 5000))
    (and (>= (select O 47) 0) (< (select O 47) 5000))
    (and (>= (select O 48) 0) (< (select O 48) 5000))
    (and (>= (select O 49) 0) (< (select O 49) 5000))
    (and (>= (select O 50) 0) (< (select O 50) 5000))
    (and (>= (select O 51) 0) (< (select O 51) 5000))
    (and (>= (select O 52) 0) (< (select O 52) 5000))
    (and (>= (select O 53) 0) (< (select O 53) 5000))
    (and (>= (select O 54) 0) (< (select O 54) 5000))
    (and (>= (select O 55) 0) (< (select O 55) 5000))
    (and (>= (select O 56) 0) (< (select O 56) 5000))
    (and (>= (select O 57) 0) (< (select O 57) 5000))
    (and (>= (select O 58) 0) (< (select O 58) 5000))
    (and (>= (select O 59) 0) (< (select O 59) 5000))
    (and (>= (select O 60) 0) (< (select O 60) 5000))
    (and (>= (select O 61) 0) (< (select O 61) 5000))
    (and (>= (select O 62) 0) (< (select O 62) 5000))
    (and (>= (select O 63) 0) (< (select O 63) 5000))
    (and (>= (select O 64) 0) (< (select O 64) 5000))
    (and (>= (select O 65) 0) (< (select O 65) 5000))
    (and (>= (select O 66) 0) (< (select O 66) 5000))
    (and (>= (select O 67) 0) (< (select O 67) 5000))
    (and (>= (select O 68) 0) (< (select O 68) 5000))
    (and (>= (select O 69) 0) (< (select O 69) 5000))
    (and (>= (select O 70) 0) (< (select O 70) 5000))
    (and (>= (select O 71) 0) (< (select O 71) 5000))
    (and (>= (select O 72) 0) (< (select O 72) 5000))
    (and (>= (select O 73) 0) (< (select O 73) 5000))
    (and (>= (select O 74) 0) (< (select O 74) 5000))
    (and (>= (select O 75) 0) (< (select O 75) 5000))
    (and (>= (select O 76) 0) (< (select O 76) 5000))
    (and (>= (select O 77) 0) (< (select O 77) 5000))
    (and (>= (select O 78) 0) (< (select O 78) 5000))
    (and (>= (select O 79) 0) (< (select O 79) 5000))
    (and (>= (select O 80) 0) (< (select O 80) 5000))
    (and (>= (select O 81) 0) (< (select O 81) 5000))
    (and (>= (select O 82) 0) (< (select O 82) 5000))
    (and (>= (select O 83) 0) (< (select O 83) 5000))
    (and (>= (select O 84) 0) (< (select O 84) 5000))
    (and (>= (select O 85) 0) (< (select O 85) 5000))
    (and (>= (select O 86) 0) (< (select O 86) 5000))
    (and (>= (select O 87) 0) (< (select O 87) 5000))
    (and (>= (select O 88) 0) (< (select O 88) 5000))
    (and (>= (select O 89) 0) (< (select O 89) 5000))
    (and (>= (select O 90) 0) (< (select O 90) 5000))
    (and (>= (select O 91) 0) (< (select O 91) 5000))
    (and (>= (select O 92) 0) (< (select O 92) 5000))
    (and (>= (select O 93) 0) (< (select O 93) 5000))
    (and (>= (select O 94) 0) (< (select O 94) 5000))
    (and (>= (select O 95) 0) (< (select O 95) 5000))
    (and (>= (select O 96) 0) (< (select O 96) 5000))
    (and (>= (select O 97) 0) (< (select O 97) 5000))
    (and (>= (select O 98) 0) (< (select O 98) 5000))
    (and (>= (select O 99) 0) (< (select O 99) 5000))
    (and (>= (select O 100) 0) (< (select O 100) 5000))
    (and (>= (select O 101) 0) (< (select O 101) 5000))
    (and (>= (select O 102) 0) (< (select O 102) 5000))
    (and (>= (select O 103) 0) (< (select O 103) 5000))
    (and (>= (select O 104) 0) (< (select O 104) 5000))
    (and (>= (select O 105) 0) (< (select O 105) 5000))
    (and (>= (select O 106) 0) (< (select O 106) 5000))
    (and (>= (select O 107) 0) (< (select O 107) 5000))
    (and (>= (select O 108) 0) (< (select O 108) 5000))
    (and (>= (select O 109) 0) (< (select O 109) 5000))
    (and (>= (select O 110) 0) (< (select O 110) 5000))
    (and (>= (select O 111) 0) (< (select O 111) 5000))
    (and (>= (select O 112) 0) (< (select O 112) 5000))
    (and (>= (select O 113) 0) (< (select O 113) 5000))
    (and (>= (select O 114) 0) (< (select O 114) 5000))
    (and (>= (select O 115) 0) (< (select O 115) 5000))
    (and (>= (select O 116) 0) (< (select O 116) 5000))
    (and (>= (select O 117) 0) (< (select O 117) 5000))
    (and (>= (select O 118) 0) (< (select O 118) 5000))
    (and (>= (select O 119) 0) (< (select O 119) 5000))
    (and (>= (select O 120) 0) (< (select O 120) 5000))
    (and (>= (select O 121) 0) (< (select O 121) 5000))
    (and (>= (select O 122) 0) (< (select O 122) 5000))
    (and (>= (select O 123) 0) (< (select O 123) 5000))
    (and (>= (select O 124) 0) (< (select O 124) 5000))
    (and (>= (select O 125) 0) (< (select O 125) 5000))
    (and (>= (select O 126) 0) (< (select O 126) 5000))
    (and (>= (select O 127) 0) (< (select O 127) 5000))
    (and (>= (select O 128) 0) (< (select O 128) 5000))
    (and (>= (select O 129) 0) (< (select O 129) 5000))
    (and (>= (select O 130) 0) (< (select O 130) 5000))
    (and (>= (select O 131) 0) (< (select O 131) 5000))
    (and (>= (select O 132) 0) (< (select O 132) 5000))
    (and (>= (select O 133) 0) (< (select O 133) 5000))
    (and (>= (select O 134) 0) (< (select O 134) 5000))
    (and (>= (select O 135) 0) (< (select O 135) 5000))
    (and (>= (select O 136) 0) (< (select O 136) 5000))
    (and (>= (select O 137) 0) (< (select O 137) 5000))
    (and (>= (select O 138) 0) (< (select O 138) 5000))
    (and (>= (select O 139) 0) (< (select O 139) 5000))
    (and (>= (select O 140) 0) (< (select O 140) 5000))
    (and (>= (select O 141) 0) (< (select O 141) 5000))
    (and (>= (select O 142) 0) (< (select O 142) 5000))
    (and (>= (select O 143) 0) (< (select O 143) 5000))
    (and (>= (select O 144) 0) (< (select O 144) 5000))
    (and (>= (select O 145) 0) (< (select O 145) 5000))
    (and (>= (select O 146) 0) (< (select O 146) 5000))
    (and (>= (select O 147) 0) (< (select O 147) 5000))
    (and (>= (select O 148) 0) (< (select O 148) 5000))
    (and (>= (select O 149) 0) (< (select O 149) 5000))
    (and (>= (select O 150) 0) (< (select O 150) 5000))
    (and (>= (select O 151) 0) (< (select O 151) 5000))
    (and (>= (select O 152) 0) (< (select O 152) 5000))
    (and (>= (select O 153) 0) (< (select O 153) 5000))
    (and (>= (select O 154) 0) (< (select O 154) 5000))
    (and (>= (select O 155) 0) (< (select O 155) 5000))
    (and (>= (select O 156) 0) (< (select O 156) 5000))
    (and (>= (select O 157) 0) (< (select O 157) 5000))
    (and (>= (select O 158) 0) (< (select O 158) 5000))
    (and (>= (select O 159) 0) (< (select O 159) 5000))
    (and (>= (select O 160) 0) (< (select O 160) 5000))
    (and (>= (select O 161) 0) (< (select O 161) 5000))
    (and (>= (select O 162) 0) (< (select O 162) 5000))
    (and (>= (select O 163) 0) (< (select O 163) 5000))
    (and (>= (select O 164) 0) (< (select O 164) 5000))
    (and (>= (select O 165) 0) (< (select O 165) 5000))
    (and (>= (select O 166) 0) (< (select O 166) 5000))
    (and (>= (select O 167) 0) (< (select O 167) 5000))
    (and (>= (select O 168) 0) (< (select O 168) 5000))
    (and (>= (select O 169) 0) (< (select O 169) 5000))
    (and (>= (select O 170) 0) (< (select O 170) 5000))
    (and (>= (select O 171) 0) (< (select O 171) 5000))
    (and (>= (select O 172) 0) (< (select O 172) 5000))
    (and (>= (select O 173) 0) (< (select O 173) 5000))
    (and (>= (select O 174) 0) (< (select O 174) 5000))
    (and (>= (select O 175) 0) (< (select O 175) 5000))
    (and (>= (select O 176) 0) (< (select O 176) 5000))
    (and (>= (select O 177) 0) (< (select O 177) 5000))
    (and (>= (select O 178) 0) (< (select O 178) 5000))
    (and (>= (select O 179) 0) (< (select O 179) 5000))
    (and (>= (select O 180) 0) (< (select O 180) 5000))
    (and (>= (select O 181) 0) (< (select O 181) 5000))
    (and (>= (select O 182) 0) (< (select O 182) 5000))
    (and (>= (select O 183) 0) (< (select O 183) 5000))
    (and (>= (select O 184) 0) (< (select O 184) 5000))
    (and (>= (select O 185) 0) (< (select O 185) 5000))
    (and (>= (select O 186) 0) (< (select O 186) 5000))
    (and (>= (select O 187) 0) (< (select O 187) 5000))
    (and (>= (select O 188) 0) (< (select O 188) 5000))
    (and (>= (select O 189) 0) (< (select O 189) 5000))
    (and (>= (select O 190) 0) (< (select O 190) 5000))
    (and (>= (select O 191) 0) (< (select O 191) 5000))
    (and (>= (select O 192) 0) (< (select O 192) 5000))
    (and (>= (select O 193) 0) (< (select O 193) 5000))
    (and (>= (select O 194) 0) (< (select O 194) 5000))
    (and (>= (select O 195) 0) (< (select O 195) 5000))
    (and (>= (select O 196) 0) (< (select O 196) 5000))
    (and (>= (select O 197) 0) (< (select O 197) 5000))
    (and (>= (select O 198) 0) (< (select O 198) 5000))
    (and (>= (select O 199) 0) (< (select O 199) 5000))
  )
)

(check-sat)
